p tw 117 21061 2 
1 3 
1 4 
1 5 
1 6 
1 7 
1 8 
1 9 
1 10 
1 11 
1 12 
1 13 
1 14 
1 15 
1 16 
1 17 
1 18 
1 19 
1 20 
1 21 
1 22 
1 23 
1 24 
1 25 
1 28 
1 45 
1 52 
1 71 
1 76 
1 78 
1 90 
1 96 
1 99 
1 109 
1 110 
1 111 
2 3 
2 4 
2 5 
2 6 
2 7 
2 8 
2 9 
2 10 
2 11 
2 12 
2 13 
2 14 
2 23 
2 26 
2 27 
2 28 
2 29 
2 30 
2 31 
2 32 
2 33 
2 34 
2 35 
2 36 
2 39 
2 53 
2 63 
2 72 
2 81 
2 93 
2 97 
2 99 
2 106 
2 114 
2 116 
3 4 
3 5 
3 6 
3 7 
3 8 
3 9 
3 10 
3 11 
3 12 
3 13 
3 15 
3 17 
3 26 
3 35 
3 37 
3 38 
3 39 
3 40 
3 41 
3 42 
3 43 
3 44 
3 45 
3 46 
3 52 
3 67 
3 74 
3 80 
3 86 
3 102 
3 105 
3 114 
3 115 
3 117 
4 5 
4 6 
4 7 
4 8 
4 9 
4 10 
4 11 
4 12 
4 13 
4 16 
4 18 
4 27 
4 29 
4 37 
4 39 
4 47 
4 48 
4 49 
4 50 
4 51 
4 52 
4 53 
4 54 
4 55 
4 56 
4 64 
4 65 
4 66 
4 67 
4 68 
4 69 
4 70 
4 71 
5 6 
5 7 
5 8 
5 9 
5 10 
5 11 
5 12 
5 13 
5 17 
5 22 
5 28 
5 36 
5 38 
5 44 
5 47 
5 55 
5 56 
5 57 
5 58 
5 59 
5 60 
5 61 
5 62 
5 63 
5 66 
5 77 
5 82 
5 91 
5 100 
5 111 
5 116 
5 117 
6 7 
6 8 
6 9 
6 10 
6 11 
6 12 
6 13 
6 16 
6 19 
6 30 
6 33 
6 40 
6 43 
6 48 
6 57 
6 62 
6 64 
6 71 
6 72 
6 73 
6 74 
6 75 
6 76 
6 77 
6 82 
6 86 
6 97 
6 101 
6 104 
6 107 
6 108 
7 8 
7 9 
7 10 
7 11 
7 12 
7 13 
7 14 
7 20 
7 31 
7 41 
7 43 
7 47 
7 49 
7 57 
7 65 
7 67 
7 73 
7 78 
7 79 
7 80 
7 81 
7 82 
7 83 
7 84 
7 88 
7 89 
7 90 
7 91 
7 92 
7 93 
8 9 
8 10 
8 11 
8 12 
8 13 
8 21 
8 23 
8 32 
8 34 
8 42 
8 45 
8 48 
8 50 
8 58 
8 61 
8 65 
8 66 
8 72 
8 78 
8 84 
8 85 
8 86 
8 87 
8 91 
8 94 
8 102 
8 107 
8 112 
8 113 
9 10 
9 11 
9 12 
9 13 
9 22 
9 25 
9 27 
9 34 
9 41 
9 42 
9 50 
9 56 
9 59 
9 68 
9 74 
9 75 
9 79 
9 88 
9 92 
9 94 
9 95 
9 96 
9 97 
9 103 
9 106 
9 108 
9 109 
9 117 
10 11 
10 12 
10 13 
10 21 
10 25 
10 30 
10 33 
10 38 
10 44 
10 51 
10 54 
10 60 
10 68 
10 69 
10 75 
10 80 
10 83 
10 87 
10 89 
10 93 
10 94 
10 98 
10 99 
10 101 
10 105 
10 111 
10 112 
11 12 
11 13 
11 19 
11 24 
11 26 
11 32 
11 37 
11 51 
11 58 
11 59 
11 69 
11 70 
11 76 
11 81 
11 83 
11 90 
11 92 
11 95 
11 100 
11 101 
11 102 
11 103 
11 104 
11 113 
11 115 
11 116 
12 13 
12 15 
12 20 
12 29 
12 36 
12 46 
12 49 
12 54 
12 60 
12 61 
12 64 
12 73 
12 84 
12 85 
12 95 
12 96 
12 98 
12 100 
12 104 
12 105 
12 106 
12 108 
12 110 
12 113 
12 114 
13 18 
13 24 
13 31 
13 35 
13 40 
13 46 
13 53 
13 55 
13 62 
13 63 
13 70 
13 77 
13 79 
13 85 
13 87 
13 88 
13 89 
13 98 
13 103 
13 107 
13 109 
13 110 
13 112 
13 115 
14 15 
14 16 
14 17 
14 18 
14 19 
14 20 
14 21 
14 22 
14 23 
14 24 
14 25 
14 26 
14 27 
14 28 
14 29 
14 30 
14 31 
14 32 
14 33 
14 34 
14 35 
14 36 
14 43 
14 47 
14 67 
14 73 
14 84 
14 88 
14 89 
14 90 
14 91 
14 92 
14 93 
15 16 
15 17 
15 18 
15 19 
15 20 
15 21 
15 22 
15 23 
15 24 
15 25 
15 26 
15 29 
15 37 
15 38 
15 39 
15 40 
15 41 
15 42 
15 43 
15 44 
15 45 
15 46 
15 49 
15 61 
15 73 
15 85 
15 96 
15 98 
15 100 
15 104 
15 105 
15 106 
16 17 
16 18 
16 19 
16 20 
16 21 
16 22 
16 23 
16 24 
16 25 
16 27 
16 33 
16 37 
16 43 
16 47 
16 48 
16 49 
16 50 
16 51 
16 52 
16 53 
16 54 
16 55 
16 62 
16 71 
16 82 
16 86 
16 97 
16 101 
16 104 
16 107 
16 108 
17 18 
17 19 
17 20 
17 21 
17 22 
17 23 
17 24 
17 25 
17 28 
17 35 
17 38 
17 47 
17 52 
17 56 
17 57 
17 58 
17 59 
17 60 
17 61 
17 62 
17 63 
17 67 
17 74 
17 80 
17 86 
17 102 
17 105 
17 114 
17 115 
17 117 
18 19 
18 20 
18 21 
18 22 
18 23 
18 24 
18 25 
18 29 
18 31 
18 39 
18 40 
18 55 
18 56 
18 63 
18 64 
18 65 
18 66 
18 67 
18 68 
18 69 
18 70 
18 71 
18 87 
18 88 
18 98 
18 103 
18 107 
18 110 
18 115 
19 20 
19 21 
19 22 
19 23 
19 24 
19 25 
19 26 
19 30 
19 40 
19 48 
19 51 
19 57 
19 58 
19 64 
19 70 
19 72 
19 73 
19 74 
19 75 
19 76 
19 77 
19 81 
19 90 
19 95 
19 100 
19 101 
19 102 
19 103 
20 21 
20 22 
20 23 
20 24 
20 25 
20 31 
20 36 
20 41 
20 46 
20 49 
20 54 
20 57 
20 60 
20 64 
20 65 
20 78 
20 79 
20 80 
20 81 
20 82 
20 83 
20 84 
20 95 
20 108 
20 110 
20 113 
20 114 
21 22 
21 23 
21 24 
21 25 
21 32 
21 33 
21 42 
21 44 
21 50 
21 51 
21 58 
21 60 
21 66 
21 69 
21 72 
21 75 
21 78 
21 80 
21 84 
21 85 
21 86 
21 87 
21 89 
21 94 
21 98 
21 99 
22 23 
22 24 
22 25 
22 27 
22 36 
22 42 
22 44 
22 55 
22 59 
22 66 
22 68 
22 74 
22 77 
22 79 
22 82 
22 88 
22 91 
22 94 
22 95 
22 96 
22 97 
22 100 
22 111 
22 116 
22 117 
23 24 
23 25 
23 34 
23 39 
23 45 
23 48 
23 53 
23 61 
23 63 
23 65 
23 72 
23 81 
23 91 
23 93 
23 94 
23 97 
23 99 
23 102 
23 106 
23 107 
23 112 
23 113 
23 114 
23 116 
24 25 
24 32 
24 35 
24 37 
24 46 
24 53 
24 59 
24 62 
24 69 
24 70 
24 76 
24 77 
24 79 
24 83 
24 85 
24 89 
24 92 
24 104 
24 109 
24 112 
24 113 
24 115 
24 116 
25 30 
25 34 
25 38 
25 41 
25 50 
25 54 
25 56 
25 68 
25 75 
25 83 
25 87 
25 92 
25 93 
25 101 
25 103 
25 105 
25 106 
25 108 
25 109 
25 111 
25 112 
25 117 
26 27 
26 28 
26 29 
26 30 
26 31 
26 32 
26 33 
26 34 
26 35 
26 36 
26 37 
26 38 
26 39 
26 40 
26 41 
26 42 
26 43 
26 44 
26 45 
26 46 
26 51 
26 58 
26 70 
26 81 
26 90 
26 95 
26 100 
26 101 
26 102 
26 103 
27 28 
27 29 
27 30 
27 31 
27 32 
27 33 
27 34 
27 35 
27 36 
27 37 
27 42 
27 47 
27 48 
27 49 
27 50 
27 51 
27 52 
27 53 
27 54 
27 55 
27 59 
27 68 
27 74 
27 79 
27 88 
27 94 
27 95 
27 96 
27 97 
28 29 
28 30 
28 31 
28 32 
28 33 
28 34 
28 35 
28 36 
28 38 
28 45 
28 47 
28 52 
28 56 
28 57 
28 58 
28 59 
28 60 
28 61 
28 62 
28 63 
28 71 
28 76 
28 78 
28 90 
28 96 
28 99 
28 109 
28 110 
28 111 
29 30 
29 31 
29 32 
29 33 
29 34 
29 35 
29 36 
29 39 
29 49 
29 56 
29 61 
29 64 
29 65 
29 66 
29 67 
29 68 
29 69 
29 70 
29 71 
29 73 
29 85 
29 96 
29 98 
29 100 
29 104 
29 105 
29 106 
30 31 
30 32 
30 33 
30 34 
30 35 
30 36 
30 38 
30 40 
30 48 
30 54 
30 57 
30 64 
30 68 
30 72 
30 73 
30 74 
30 75 
30 76 
30 77 
30 83 
30 87 
30 93 
30 101 
30 105 
30 111 
30 112 
31 32 
31 33 
31 34 
31 35 
31 36 
31 40 
31 41 
31 49 
31 55 
31 57 
31 63 
31 65 
31 78 
31 79 
31 80 
31 81 
31 82 
31 83 
31 87 
31 88 
31 98 
31 103 
31 107 
31 110 
31 115 
32 33 
32 34 
32 35 
32 36 
32 37 
32 42 
32 50 
32 58 
32 59 
32 66 
32 69 
32 72 
32 76 
32 78 
32 83 
32 84 
32 85 
32 86 
32 87 
32 92 
32 104 
32 113 
32 115 
32 116 
33 34 
33 35 
33 36 
33 43 
33 44 
33 51 
33 60 
33 62 
33 69 
33 71 
33 75 
33 80 
33 82 
33 86 
33 89 
33 94 
33 97 
33 98 
33 99 
33 101 
33 104 
33 107 
33 108 
34 35 
34 36 
34 41 
34 45 
34 48 
34 50 
34 56 
34 61 
34 65 
34 75 
34 91 
34 92 
34 94 
34 102 
34 103 
34 106 
34 107 
34 108 
34 109 
34 112 
34 113 
34 117 
35 36 
35 46 
35 52 
35 53 
35 62 
35 67 
35 70 
35 74 
35 77 
35 79 
35 80 
35 85 
35 86 
35 89 
35 102 
35 105 
35 109 
35 112 
35 114 
35 115 
35 117 
36 44 
36 46 
36 54 
36 55 
36 60 
36 64 
36 66 
36 77 
36 82 
36 84 
36 91 
36 95 
36 100 
36 108 
36 110 
36 111 
36 113 
36 114 
36 116 
36 117 
37 38 
37 39 
37 40 
37 41 
37 42 
37 43 
37 44 
37 45 
37 46 
37 47 
37 48 
37 49 
37 50 
37 51 
37 52 
37 53 
37 54 
37 55 
37 59 
37 69 
37 76 
37 83 
37 92 
37 104 
37 113 
37 115 
37 116 
38 39 
38 40 
38 41 
38 42 
38 43 
38 44 
38 45 
38 46 
38 47 
38 54 
38 56 
38 57 
38 58 
38 59 
38 60 
38 61 
38 62 
38 63 
38 68 
38 83 
38 87 
38 93 
38 101 
38 105 
38 111 
38 112 
39 40 
39 41 
39 42 
39 43 
39 44 
39 45 
39 46 
39 53 
39 56 
39 63 
39 64 
39 65 
39 66 
39 67 
39 68 
39 69 
39 70 
39 71 
39 72 
39 81 
39 93 
39 97 
39 99 
39 106 
39 114 
39 116 
40 41 
40 42 
40 43 
40 44 
40 45 
40 46 
40 48 
40 55 
40 57 
40 63 
40 64 
40 72 
40 73 
40 74 
40 75 
40 76 
40 77 
40 87 
40 88 
40 98 
40 103 
40 107 
40 110 
40 115 
41 42 
41 43 
41 44 
41 45 
41 46 
41 49 
41 50 
41 56 
41 57 
41 65 
41 75 
41 78 
41 79 
41 80 
41 81 
41 82 
41 83 
41 92 
41 103 
41 106 
41 108 
41 109 
41 117 
42 43 
42 44 
42 45 
42 46 
42 50 
42 58 
42 59 
42 66 
42 68 
42 72 
42 74 
42 78 
42 79 
42 84 
42 85 
42 86 
42 87 
42 88 
42 94 
42 95 
42 96 
42 97 
43 44 
43 45 
43 46 
43 47 
43 62 
43 67 
43 71 
43 73 
43 82 
43 84 
43 86 
43 88 
43 89 
43 90 
43 91 
43 92 
43 93 
43 97 
43 101 
43 104 
43 107 
43 108 
44 45 
44 46 
44 51 
44 55 
44 60 
44 66 
44 69 
44 75 
44 77 
44 80 
44 82 
44 89 
44 91 
44 94 
44 98 
44 99 
44 100 
44 111 
44 116 
44 117 
45 46 
45 48 
45 52 
45 61 
45 65 
45 71 
45 76 
45 78 
45 90 
45 91 
45 94 
45 96 
45 99 
45 102 
45 107 
45 109 
45 110 
45 111 
45 112 
45 113 
46 53 
46 54 
46 60 
46 62 
46 64 
46 70 
46 77 
46 79 
46 84 
46 85 
46 89 
46 95 
46 108 
46 109 
46 110 
46 112 
46 113 
46 114 
47 48 
47 49 
47 50 
47 51 
47 52 
47 53 
47 54 
47 55 
47 56 
47 57 
47 58 
47 59 
47 60 
47 61 
47 62 
47 63 
47 67 
47 73 
47 84 
47 88 
47 89 
47 90 
47 91 
47 92 
47 93 
48 49 
48 50 
48 51 
48 52 
48 53 
48 54 
48 55 
48 57 
48 61 
48 64 
48 65 
48 72 
48 73 
48 74 
48 75 
48 76 
48 77 
48 91 
48 94 
48 102 
48 107 
48 112 
48 113 
49 50 
49 51 
49 52 
49 53 
49 54 
49 55 
49 57 
49 61 
49 65 
49 73 
49 78 
49 79 
49 80 
49 81 
49 82 
49 83 
49 85 
49 96 
49 98 
49 100 
49 104 
49 105 
49 106 
50 51 
50 52 
50 53 
50 54 
50 55 
50 56 
50 58 
50 66 
50 72 
50 75 
50 78 
50 84 
50 85 
50 86 
50 87 
50 92 
50 103 
50 106 
50 108 
50 109 
50 117 
51 52 
51 53 
51 54 
51 55 
51 58 
51 60 
51 69 
51 70 
51 75 
51 80 
51 81 
51 89 
51 90 
51 94 
51 95 
51 98 
51 99 
51 100 
51 101 
51 102 
51 103 
52 53 
52 54 
52 55 
52 67 
52 71 
52 74 
52 76 
52 78 
52 80 
52 86 
52 90 
52 96 
52 99 
52 102 
52 105 
52 109 
52 110 
52 111 
52 114 
52 115 
52 117 
53 54 
53 55 
53 62 
53 63 
53 70 
53 72 
53 77 
53 79 
53 81 
53 85 
53 89 
53 93 
53 97 
53 99 
53 106 
53 109 
53 112 
53 114 
53 116 
54 55 
54 60 
54 64 
54 68 
54 83 
54 84 
54 87 
54 93 
54 95 
54 101 
54 105 
54 108 
54 110 
54 111 
54 112 
54 113 
54 114 
55 63 
55 66 
55 77 
55 82 
55 87 
55 88 
55 91 
55 98 
55 100 
55 103 
55 107 
55 110 
55 111 
55 115 
55 116 
55 117 
56 57 
56 58 
56 59 
56 60 
56 61 
56 62 
56 63 
56 64 
56 65 
56 66 
56 67 
56 68 
56 69 
56 70 
56 71 
56 75 
56 92 
56 103 
56 106 
56 108 
56 109 
56 117 
57 58 
57 59 
57 60 
57 61 
57 62 
57 63 
57 64 
57 65 
57 72 
57 73 
57 74 
57 75 
57 76 
57 77 
57 78 
57 79 
57 80 
57 81 
57 82 
57 83 
58 59 
58 60 
58 61 
58 62 
58 63 
58 66 
58 70 
58 72 
58 78 
58 81 
58 84 
58 85 
58 86 
58 87 
58 90 
58 95 
58 100 
58 101 
58 102 
58 103 
59 60 
59 61 
59 62 
59 63 
59 68 
59 69 
59 74 
59 76 
59 79 
59 83 
59 88 
59 92 
59 94 
59 95 
59 96 
59 97 
59 104 
59 113 
59 115 
59 116 
60 61 
60 62 
60 63 
60 64 
60 69 
60 75 
60 80 
60 84 
60 89 
60 94 
60 95 
60 98 
60 99 
60 108 
60 110 
60 113 
60 114 
61 62 
61 63 
61 65 
61 73 
61 85 
61 91 
61 94 
61 96 
61 98 
61 100 
61 102 
61 104 
61 105 
61 106 
61 107 
61 112 
61 113 
62 63 
62 70 
62 71 
62 77 
62 79 
62 82 
62 85 
62 86 
62 89 
62 97 
62 101 
62 104 
62 107 
62 108 
62 109 
62 112 
63 72 
63 81 
63 87 
63 88 
63 93 
63 97 
63 98 
63 99 
63 103 
63 106 
63 107 
63 110 
63 114 
63 115 
63 116 
64 65 
64 66 
64 67 
64 68 
64 69 
64 70 
64 71 
64 72 
64 73 
64 74 
64 75 
64 76 
64 77 
64 84 
64 95 
64 108 
64 110 
64 113 
64 114 
65 66 
65 67 
65 68 
65 69 
65 70 
65 71 
65 78 
65 79 
65 80 
65 81 
65 82 
65 83 
65 91 
65 94 
65 102 
65 107 
65 112 
65 113 
66 67 
66 68 
66 69 
66 70 
66 71 
66 72 
66 77 
66 78 
66 82 
66 84 
66 85 
66 86 
66 87 
66 91 
66 100 
66 111 
66 116 
66 117 
67 68 
67 69 
67 70 
67 71 
67 73 
67 74 
67 80 
67 84 
67 86 
67 88 
67 89 
67 90 
67 91 
67 92 
67 93 
67 102 
67 105 
67 114 
67 115 
67 117 
68 69 
68 70 
68 71 
68 74 
68 79 
68 83 
68 87 
68 88 
68 93 
68 94 
68 95 
68 96 
68 97 
68 101 
68 105 
68 111 
68 112 
69 70 
69 71 
69 75 
69 76 
69 80 
69 83 
69 89 
69 92 
69 94 
69 98 
69 99 
69 104 
69 113 
69 115 
69 116 
70 71 
70 77 
70 79 
70 81 
70 85 
70 89 
70 90 
70 95 
70 100 
70 101 
70 102 
70 103 
70 109 
70 112 
71 76 
71 78 
71 82 
71 86 
71 90 
71 96 
71 97 
71 99 
71 101 
71 104 
71 107 
71 108 
71 109 
71 110 
71 111 
72 73 
72 74 
72 75 
72 76 
72 77 
72 78 
72 81 
72 84 
72 85 
72 86 
72 87 
72 93 
72 97 
72 99 
72 106 
72 114 
72 116 
73 74 
73 75 
73 76 
73 77 
73 84 
73 85 
73 88 
73 89 
73 90 
73 91 
73 92 
73 93 
73 96 
73 98 
73 100 
73 104 
73 105 
73 106 
74 75 
74 76 
74 77 
74 79 
74 80 
74 86 
74 88 
74 94 
74 95 
74 96 
74 97 
74 102 
74 105 
74 114 
74 115 
74 117 
75 76 
75 77 
75 80 
75 89 
75 92 
75 94 
75 98 
75 99 
75 103 
75 106 
75 108 
75 109 
75 117 
76 77 
76 78 
76 83 
76 90 
76 92 
76 96 
76 99 
76 104 
76 109 
76 110 
76 111 
76 113 
76 115 
76 116 
77 79 
77 82 
77 85 
77 89 
77 91 
77 100 
77 109 
77 111 
77 112 
77 116 
77 117 
78 79 
78 80 
78 81 
78 82 
78 83 
78 84 
78 85 
78 86 
78 87 
78 90 
78 96 
78 99 
78 109 
78 110 
78 111 
79 80 
79 81 
79 82 
79 83 
79 85 
79 88 
79 89 
79 94 
79 95 
79 96 
79 97 
79 109 
79 112 
80 81 
80 82 
80 83 
80 86 
80 89 
80 94 
80 98 
80 99 
80 102 
80 105 
80 114 
80 115 
80 117 
81 82 
81 83 
81 90 
81 93 
81 95 
81 97 
81 99 
81 100 
81 101 
81 102 
81 103 
81 106 
81 114 
81 116 
82 83 
82 86 
82 91 
82 97 
82 100 
82 101 
82 104 
82 107 
82 108 
82 111 
82 116 
82 117 
83 87 
83 92 
83 93 
83 101 
83 104 
83 105 
83 111 
83 112 
83 113 
83 115 
83 116 
84 85 
84 86 
84 87 
84 88 
84 89 
84 90 
84 91 
84 92 
84 93 
84 95 
84 108 
84 110 
84 113 
84 114 
85 86 
85 87 
85 89 
85 96 
85 98 
85 100 
85 104 
85 105 
85 106 
85 109 
85 112 
86 87 
86 97 
86 101 
86 102 
86 104 
86 105 
86 107 
86 108 
86 114 
86 115 
86 117 
87 88 
87 93 
87 98 
87 101 
87 103 
87 105 
87 107 
87 110 
87 111 
87 112 
87 115 
88 89 
88 90 
88 91 
88 92 
88 93 
88 94 
88 95 
88 96 
88 97 
88 98 
88 103 
88 107 
88 110 
88 115 
89 90 
89 91 
89 92 
89 93 
89 94 
89 98 
89 99 
89 109 
89 112 
90 91 
90 92 
90 93 
90 95 
90 96 
90 99 
90 100 
90 101 
90 102 
90 103 
90 109 
90 110 
90 111 
91 92 
91 93 
91 94 
91 100 
91 102 
91 107 
91 111 
91 112 
91 113 
91 116 
91 117 
92 93 
92 103 
92 104 
92 106 
92 108 
92 109 
92 113 
92 115 
92 116 
92 117 
93 97 
93 99 
93 101 
93 105 
93 106 
93 111 
93 112 
93 114 
93 116 
94 95 
94 96 
94 97 
94 98 
94 99 
94 102 
94 107 
94 112 
94 113 
95 96 
95 97 
95 100 
95 101 
95 102 
95 103 
95 108 
95 110 
95 113 
95 114 
96 97 
96 98 
96 99 
96 100 
96 104 
96 105 
96 106 
96 109 
96 110 
96 111 
97 99 
97 101 
97 104 
97 106 
97 107 
97 108 
97 114 
97 116 
98 99 
98 100 
98 103 
98 104 
98 105 
98 106 
98 107 
98 110 
98 115 
99 106 
99 109 
99 110 
99 111 
99 114 
99 116 
100 101 
100 102 
100 103 
100 104 
100 105 
100 106 
100 111 
100 116 
100 117 
101 102 
101 103 
101 104 
101 105 
101 107 
101 108 
101 111 
101 112 
102 103 
102 105 
102 107 
102 112 
102 113 
102 114 
102 115 
102 117 
103 106 
103 107 
103 108 
103 109 
103 110 
103 115 
103 117 
104 105 
104 106 
104 107 
104 108 
104 113 
104 115 
104 116 
105 106 
105 111 
105 112 
105 114 
105 115 
105 117 
106 108 
106 109 
106 114 
106 116 
106 117 
107 108 
107 110 
107 112 
107 113 
107 115 
108 109 
108 110 
108 113 
108 114 
108 117 
109 110 
109 111 
109 112 
109 117 
110 111 
110 113 
110 114 
110 115 
111 112 
111 116 
111 117 
112 113 
113 114 
113 115 
113 116 
114 115 
114 116 
114 117 
115 116 
115 117 
116 117 
